NAME MasterProb
ROWS
 N  OBJ
 L  c0      
 L  c1      
 L  c2      
 L  c3      
 L  c4      
 L  c5      
 L  c6      
 L  c7      
 L  c8      
 L  c9      
 L  c10     
 L  c11     
 L  c12     
 L  c13     
 L  c14     
 L  c15     
 L  c16     
 L  c17     
 L  c18     
 L  c19     
 L  c20     
 L  c21     
 L  c22     
 L  c23     
 L  c24     
 L  c25     
 L  c26     
 L  c27     
 L  c28     
 L  c29     
 L  c30     
 L  c31     
 L  c32     
 L  c33     
 L  c34     
 L  c35     
 L  c36     
 L  c37     
 L  c38     
 L  c39     
 L  c40     
 L  c41     
 L  c42     
 L  c43     
 L  c44     
 L  c45     
 L  c46     
 G  c47     
 G  c48     
 G  c49     
 G  c50     
 G  c51     
COLUMNS
    MARKER    'MARKER'                 'INTORG'
    X[1,1,1]  OBJ       6.2706222519430048e+02
    X[1,1,1]  c0        345
    X[1,1,1]  c12       1
    X[1,1,1]  c37       1
    X[1,1,2]  OBJ       5.8107766201338509e+03
    X[1,1,2]  c0        3.1969999999999995e+03
    X[1,1,2]  c2        1
    X[1,1,2]  c17       1
    X[1,1,3]  OBJ       8.3608296692573390e+02
    X[1,1,3]  c0        4.5999999999999994e+02
    X[1,1,3]  c3        1
    X[1,1,3]  c18       1
    X[1,2,1]  OBJ       6.2706222519430048e+02
    X[1,2,1]  c0        345
    X[1,2,1]  c13       1
    X[1,2,1]  c38       1
    X[1,2,2]  OBJ       5.8107766201338509e+03
    X[1,2,2]  c0        3.1969999999999995e+03
    X[1,2,2]  c4        1
    X[1,2,2]  c19       1
    X[1,2,3]  OBJ       8.3608296692573390e+02
    X[1,2,3]  c0        4.5999999999999994e+02
    X[1,2,3]  c5        1
    X[1,2,3]  c20       1
    X[1,3,1]  OBJ       6.2706222519430048e+02
    X[1,3,1]  c0        345
    X[1,3,1]  c14       1
    X[1,3,1]  c39       1
    X[1,3,2]  OBJ       5.8107766201338509e+03
    X[1,3,2]  c0        3.1969999999999995e+03
    X[1,3,2]  c6        1
    X[1,3,2]  c21       1
    X[1,3,3]  OBJ       8.3608296692573390e+02
    X[1,3,3]  c0        4.5999999999999994e+02
    X[1,3,3]  c7        1
    X[1,3,3]  c22       1
    X[1,4,1]  OBJ       6.2706222519430048e+02
    X[1,4,1]  c0        345
    X[1,4,1]  c15       1
    X[1,4,1]  c40       1
    X[1,4,2]  OBJ       5.8107766201338509e+03
    X[1,4,2]  c0        3.1969999999999995e+03
    X[1,4,2]  c8        1
    X[1,4,2]  c23       1
    X[1,4,3]  OBJ       8.3608296692573390e+02
    X[1,4,3]  c0        4.5999999999999994e+02
    X[1,4,3]  c9        1
    X[1,4,3]  c24       1
    X[1,5,1]  OBJ       6.2706222519430048e+02
    X[1,5,1]  c0        345
    X[1,5,1]  c16       1
    X[1,5,1]  c41       1
    X[1,5,2]  OBJ       5.8107766201338509e+03
    X[1,5,2]  c0        3.1969999999999995e+03
    X[1,5,2]  c10       1
    X[1,5,2]  c25       1
    X[1,5,3]  OBJ       8.3608296692573390e+02
    X[1,5,3]  c0        4.5999999999999994e+02
    X[1,5,3]  c11       1
    X[1,5,3]  c26       1
    X[2,1,1]  OBJ       4.9994959135767863e+02
    X[2,1,1]  c1        345
    X[2,1,1]  c12       1
    X[2,1,1]  c42       1
    X[2,1,2]  OBJ       4.6328662132478212e+03
    X[2,1,2]  c1        3.1969999999999995e+03
    X[2,1,2]  c2        1
    X[2,1,2]  c27       1
    X[2,1,3]  OBJ       6.6659945514357150e+02
    X[2,1,3]  c1        4.5999999999999994e+02
    X[2,1,3]  c3        1
    X[2,1,3]  c28       1
    X[2,2,1]  OBJ       4.9994959135767863e+02
    X[2,2,1]  c1        345
    X[2,2,1]  c13       1
    X[2,2,1]  c43       1
    X[2,2,2]  OBJ       4.6328662132478212e+03
    X[2,2,2]  c1        3.1969999999999995e+03
    X[2,2,2]  c4        1
    X[2,2,2]  c29       1
    X[2,2,3]  OBJ       6.6659945514357150e+02
    X[2,2,3]  c1        4.5999999999999994e+02
    X[2,2,3]  c5        1
    X[2,2,3]  c30       1
    X[2,3,1]  OBJ       4.9994959135767863e+02
    X[2,3,1]  c1        345
    X[2,3,1]  c14       1
    X[2,3,1]  c44       1
    X[2,3,2]  OBJ       4.6328662132478212e+03
    X[2,3,2]  c1        3.1969999999999995e+03
    X[2,3,2]  c6        1
    X[2,3,2]  c31       1
    X[2,3,3]  OBJ       6.6659945514357150e+02
    X[2,3,3]  c1        4.5999999999999994e+02
    X[2,3,3]  c7        1
    X[2,3,3]  c32       1
    X[2,4,1]  OBJ       4.9994959135767863e+02
    X[2,4,1]  c1        345
    X[2,4,1]  c15       1
    X[2,4,1]  c45       1
    X[2,4,2]  OBJ       4.6328662132478212e+03
    X[2,4,2]  c1        3.1969999999999995e+03
    X[2,4,2]  c8        1
    X[2,4,2]  c33       1
    X[2,4,3]  OBJ       6.6659945514357150e+02
    X[2,4,3]  c1        4.5999999999999994e+02
    X[2,4,3]  c9        1
    X[2,4,3]  c34       1
    X[2,5,1]  OBJ       4.9994959135767863e+02
    X[2,5,1]  c1        345
    X[2,5,1]  c16       1
    X[2,5,1]  c46       1
    X[2,5,2]  OBJ       4.6328662132478212e+03
    X[2,5,2]  c1        3.1969999999999995e+03
    X[2,5,2]  c10       1
    X[2,5,2]  c35       1
    X[2,5,3]  OBJ       6.6659945514357150e+02
    X[2,5,3]  c1        4.5999999999999994e+02
    X[2,5,3]  c11       1
    X[2,5,3]  c36       1
    U[1,1]    OBJ       4.0154328365363448e+05
    U[1,1]    c0        18164
    U[1,1]    c1        -18164
    U[1,1]    c17       -114
    U[1,1]    c18       -100
    U[1,1]    c37       -300
    U[1,1]    c47       -1
    U[1,2]    OBJ       1.3912975170681095e+06
    U[1,2]    c0        62936
    U[1,2]    c1        -62936
    U[1,2]    c19       -396
    U[1,2]    c20       -100
    U[1,2]    c38       -300
    U[1,2]    c48       -1
    U[1,3]    OBJ       4.9671195994348777e+05
    U[1,3]    c0        22469
    U[1,3]    c1        -22469
    U[1,3]    c21       -141
    U[1,3]    c22       -100
    U[1,3]    c39       -300
    U[1,3]    c49       -1
    U[1,4]    OBJ       4.7456120183839306e+05
    U[1,4]    c0        21467
    U[1,4]    c1        -21467
    U[1,4]    c23       -133
    U[1,4]    c24       -100
    U[1,4]    c40       -300
    U[1,4]    c50       -1
    U[1,5]    OBJ       8.6569230278993212e+05
    U[1,5]    c0        39160
    U[1,5]    c1        -39160
    U[1,5]    c25       -246
    U[1,5]    c26       -100
    U[1,5]    c41       -300
    U[1,5]    c51       -1
    U[2,1]    OBJ       4.8947902216015232e+05
    U[2,1]    c1        18164
    U[2,1]    c27       -114
    U[2,1]    c28       -100
    U[2,1]    c42       -150
    U[2,1]    c47       1
    U[2,2]    OBJ       1.6959839098585853e+06
    U[2,2]    c1        62936
    U[2,2]    c29       -396
    U[2,2]    c30       -100
    U[2,2]    c43       -150
    U[2,2]    c48       1
    U[2,3]    OBJ       6.0548910751577083e+05
    U[2,3]    c1        22469
    U[2,3]    c31       -141
    U[2,3]    c32       -100
    U[2,3]    c44       -150
    U[2,3]    c49       1
    U[2,4]    OBJ       5.7848745698700659e+05
    U[2,4]    c1        21467
    U[2,4]    c33       -133
    U[2,4]    c34       -100
    U[2,4]    c45       -150
    U[2,4]    c50       1
    U[2,5]    OBJ       1.0552740865333388e+06
    U[2,5]    c1        39160
    U[2,5]    c35       -246
    U[2,5]    c36       -100
    U[2,5]    c46       -150
    U[2,5]    c51       1
    MARKER    'MARKER'                 'INTEND'
    eta       OBJ       1
RHS
    RHS1      c0        10000000
    RHS1      c1        5000000
    RHS1      c2        114
    RHS1      c3        100
    RHS1      c4        396
    RHS1      c5        100
    RHS1      c6        141
    RHS1      c7        100
    RHS1      c8        133
    RHS1      c9        100
    RHS1      c10       246
    RHS1      c11       100
    RHS1      c12       450
    RHS1      c13       450
    RHS1      c14       450
    RHS1      c15       450
    RHS1      c16       450
BOUNDS
 LI BND1      X[1,1,1]  0
 LI BND1      X[1,1,2]  0
 LI BND1      X[1,1,3]  0
 LI BND1      X[1,2,1]  0
 LI BND1      X[1,2,2]  0
 LI BND1      X[1,2,3]  0
 LI BND1      X[1,3,1]  0
 LI BND1      X[1,3,2]  0
 LI BND1      X[1,3,3]  0
 LI BND1      X[1,4,1]  0
 LI BND1      X[1,4,2]  0
 LI BND1      X[1,4,3]  0
 LI BND1      X[1,5,1]  0
 LI BND1      X[1,5,2]  0
 LI BND1      X[1,5,3]  0
 LI BND1      X[2,1,1]  0
 LI BND1      X[2,1,2]  0
 LI BND1      X[2,1,3]  0
 LI BND1      X[2,2,1]  0
 LI BND1      X[2,2,2]  0
 LI BND1      X[2,2,3]  0
 LI BND1      X[2,3,1]  0
 LI BND1      X[2,3,2]  0
 LI BND1      X[2,3,3]  0
 LI BND1      X[2,4,1]  0
 LI BND1      X[2,4,2]  0
 LI BND1      X[2,4,3]  0
 LI BND1      X[2,5,1]  0
 LI BND1      X[2,5,2]  0
 LI BND1      X[2,5,3]  0
 BV BND1      U[1,1]  
 BV BND1      U[1,2]  
 BV BND1      U[1,3]  
 BV BND1      U[1,4]  
 BV BND1      U[1,5]  
 BV BND1      U[2,1]  
 BV BND1      U[2,2]  
 BV BND1      U[2,3]  
 BV BND1      U[2,4]  
 BV BND1      U[2,5]  
 LO BND1      eta       -100000000
ENDATA
